50 96
157 169 3
157 344 3
127 344 2
233 317 2
85 187 1
184 320 1
185 320 1
111 314 1
40 212 2
147 315 2
110 290 1
80 136 8
148 176 2
146 249 2
104 142 2
90 286 2
121 242 2
184 260 1
113 300 3
115 218 4
210 420 4
163 420 4
137 284 2
205 239 1
159 185 1
118 231 1
116 146 1
241 330 2
135 152 2
85 326 1
120 195 1
138 213 2
55 90 1
64 159 2
81 187 2
81 175 1
60 162 1
94 312 1
110 173 1
116 261 1
109 261 1
120 324 1
104 202 1
76 196 6
40 213 1
61 186 1
69 248 2
69 206 2
45 234 2
57 220 2
500 1000 
500 1000 
500 1000 
500 1000 
500 1000 
500 1000 
500 1000 
500 1000 
500 1000 
500 1000 
500 1000 
500 1000 
500 1000 
500 1000 
500 1000 
500 1000 
500 1000 
500 1000 
500 1000 
500 1000 
500 1000 
500 1000 
500 1000 
500 1000 
500 1000 
500 1000 
500 1000 
500 1000 
500 1000 
500 1000 
500 1000 
500 1000 
500 1000 
500 1000 
500 1000 
500 1000 
500 1000 
500 1000 
500 1000 
500 1000 
500 1000 
500 1000 
500 1000 
500 1000 
500 1000 
500 1000 
500 1000 
500 1000 
500 1000 
500 1000 
500 1000 
500 1000 
500 1000 
500 1000 
500 1000 
500 1000 
500 1000 
500 1000 
500 1000 
500 1000 
500 1000 
500 1000 
500 1000 
500 1000 
500 1000 
500 1000 
500 1000 
500 1000 
500 1000 
500 1000 
500 1000 
500 1000 
500 1000 
500 1000 
500 1000 
500 1000 
500 1000 
500 1000 
500 1000 
500 1000 
500 1000 
500 1000 
500 1000 
500 1000 
500 1000 
500 1000 
500 1000 
500 1000 
500 1000 
500 1000 
500 1000 
500 1000 
500 1000 
500 1000 
500 1000 
500 1000 
